50
19523

689 610
879 492
884 903
460 886
366 806
294 692
675 711
766 294
784 572
431 931
180 32
296 878
567 571
993 188
35 174
37 584
708 821
458 384
737 573
797 61
343 143
951 407
57 748
483 636
927 133
685 404
156 72
927 429
379 151
173 230
193 651
217 119
152 742
429 295
151 812
149 187
650 837
408 877
71 370
184 628
727 72
314 367
845 495
694 62
306 643
358 863
439 977
452 258
653 8
353 871
